p cnf 21 10
17 6 -20 0
2 -3 -18 0
3 2 12 0
1 2 3 4 5 6 7 8 9 10 11 12 13 14 15 16 17 18 19 20 21 0
-19 1 20 0
-16 -3 21 0
3 17 -1 0
-1 -2 -3 -4 -5 -6 -7 -8 -9 -10 -11 -12 -13 -14 -15 -16 -17 -18 -19 -20 -21 0
-12 2 -17 0
-18 -18 -8 0
